n = 28;
lu = [|-553, 736
      |-517, 333
      |439, 674
      |-420, -321
      |-513, 522
      |166, 779
      |-353, 71
      |-489, -348
      |-451, 18
      |-516, 457
      |-400, -372
      |-728, 49
      |-642, -293
      |-590, 76
      |-140, 642
      |-519, -423
      |253, 280
      |630, 696
      |-230, 572
      |-308, 470
      |135, 607
      |-515, -375
      |-757, -202
      |512, 599
      |-623, -252
      |281, 308
      |-213, 702
      |-531, 395|];
